90 362642
23 47 26 14 2 22 82 4 9 55 63 62 45 41 28 19 54 69 80 57 46 84 65 37 58 8 34 90 44 24 51 15 86 42 67 30 73 81 40 36 77 33 64 53 38 3 48 59 12 85 75 5 49 27 88 10 52 39 78 66 87 25 20 1 17 83 11 43 32 18 21 50 29 79 61 35 74 72 56 70 31 16 68 60 7 89 13 71 76 6 
